p cnf 440 1406
1 2 3 4 0
5 6 7 8 0
9 10 11 12 0
13 14 15 16 0
17 18 19 20 0
21 22 23 24 0
25 26 27 28 0
29 30 31 32 0
33 34 35 36 0
37 38 39 40 0
41 42 43 44 0
45 46 47 48 0
49 50 51 52 0
53 54 55 56 0
57 58 59 60 0
61 62 63 64 0
65 66 67 68 0
69 70 71 72 0
73 74 75 76 0
77 78 79 80 0
81 82 83 84 0
85 86 87 88 0
89 90 91 92 0
93 94 95 96 0
97 98 99 100 0
101 102 103 104 0
105 106 107 108 0
109 110 111 112 0
113 114 115 116 0
117 118 119 120 0
121 122 123 124 0
125 126 127 128 0
129 130 131 132 0
133 134 135 136 0
137 138 139 140 0
141 142 143 144 0
145 146 147 148 0
149 150 151 152 0
153 154 155 156 0
157 158 159 160 0
161 162 163 164 0
165 166 167 168 0
169 170 171 172 0
173 174 175 176 0
177 178 179 180 0
181 182 183 184 0
185 186 187 188 0
189 190 191 192 0
193 194 195 196 0
197 198 199 200 0
201 202 203 204 0
205 206 207 208 0
209 210 211 212 0
213 214 215 216 0
217 218 219 220 0
221 222 223 224 0
225 226 227 228 0
229 230 231 232 0
233 234 235 236 0
237 238 239 240 0
241 242 243 244 0
245 246 247 248 0
249 250 251 252 0
253 254 255 256 0
257 258 259 260 0
261 262 263 264 0
265 266 267 268 0
269 270 271 272 0
273 274 275 276 0
277 278 279 280 0
281 282 283 284 0
285 286 287 288 0
289 290 291 292 0
293 294 295 296 0
297 298 299 300 0
301 302 303 304 0
305 306 307 308 0
309 310 311 312 0
313 314 315 316 0
317 318 319 320 0
321 322 323 324 0
325 326 327 328 0
329 330 331 332 0
333 334 335 336 0
337 338 339 340 0
341 342 343 344 0
345 346 347 348 0
349 350 351 352 0
353 354 355 356 0
357 358 359 360 0
361 362 363 364 0
365 366 367 368 0
369 370 371 372 0
373 374 375 376 0
377 378 379 380 0
381 382 383 384 0
385 386 387 388 0
389 390 391 392 0
393 394 395 396 0
397 398 399 400 0
401 402 403 404 0
405 406 407 408 0
409 410 411 412 0
413 414 415 416 0
417 418 419 420 0
421 422 423 424 0
425 426 427 428 0
429 430 431 432 0
433 434 435 436 0
437 438 439 440 0
-1 -5 0
-2 -6 0
-3 -7 0
-4 -8 0
-1 -9 0
-2 -10 0
-3 -11 0
-4 -12 0
-5 -9 0
-6 -10 0
-7 -11 0
-8 -12 0
-13 -17 0
-14 -18 0
-15 -19 0
-16 -20 0
-5 -13 0
-6 -14 0
-7 -15 0
-8 -16 0
-17 -9 0
-18 -10 0
-19 -11 0
-20 -12 0
-13 -1 0
-14 -2 0
-15 -3 0
-16 -4 0
-17 -1 0
-18 -2 0
-19 -3 0
-20 -4 0
-5 -21 0
-6 -22 0
-7 -23 0
-8 -24 0
-5 -25 0
-6 -26 0
-7 -27 0
-8 -28 0
-9 -25 0
-10 -26 0
-11 -27 0
-12 -28 0
-9 -29 0
-10 -30 0
-11 -31 0
-12 -32 0
-13 -33 0
-14 -34 0
-15 -35 0
-16 -36 0
-13 -37 0
-14 -38 0
-15 -39 0
-16 -40 0
-17 -37 0
-18 -38 0
-19 -39 0
-20 -40 0
-17 -41 0
-18 -42 0
-19 -43 0
-20 -44 0
-21 -25 0
-22 -26 0
-23 -27 0
-24 -28 0
-33 -37 0
-34 -38 0
-35 -39 0
-36 -40 0
-25 -29 0
-26 -30 0
-27 -31 0
-28 -32 0
-37 -41 0
-38 -42 0
-39 -43 0
-40 -44 0
-21 -33 0
-22 -34 0
-23 -35 0
-24 -36 0
-41 -29 0
-42 -30 0
-43 -31 0
-44 -32 0
-33 -5 0
-34 -6 0
-35 -7 0
-36 -8 0
-41 -9 0
-42 -10 0
-43 -11 0
-44 -12 0
-21 -45 0
-22 -46 0
-23 -47 0
-24 -48 0
-21 -49 0
-22 -50 0
-23 -51 0
-24 -52 0
-25 -49 0
-26 -50 0
-27 -51 0
-28 -52 0
-25 -53 0
-26 -54 0
-27 -55 0
-28 -56 0
-29 -53 0
-30 -54 0
-31 -55 0
-32 -56 0
-29 -57 0
-30 -58 0
-31 -59 0
-32 -60 0
-33 -61 0
-34 -62 0
-35 -63 0
-36 -64 0
-33 -65 0
-34 -66 0
-35 -67 0
-36 -68 0
-37 -65 0
-38 -66 0
-39 -67 0
-40 -68 0
-37 -69 0
-38 -70 0
-39 -71 0
-40 -72 0
-41 -69 0
-42 -70 0
-43 -71 0
-44 -72 0
-41 -73 0
-42 -74 0
-43 -75 0
-44 -76 0
-45 -49 0
-46 -50 0
-47 -51 0
-48 -52 0
-61 -65 0
-62 -66 0
-63 -67 0
-64 -68 0
-49 -53 0
-50 -54 0
-51 -55 0
-52 -56 0
-65 -69 0
-66 -70 0
-67 -71 0
-68 -72 0
-53 -57 0
-54 -58 0
-55 -59 0
-56 -60 0
-69 -73 0
-70 -74 0
-71 -75 0
-72 -76 0
-45 -61 0
-46 -62 0
-47 -63 0
-48 -64 0
-73 -57 0
-74 -58 0
-75 -59 0
-76 -60 0
-61 -21 0
-62 -22 0
-63 -23 0
-64 -24 0
-73 -29 0
-74 -30 0
-75 -31 0
-76 -32 0
-45 -77 0
-46 -78 0
-47 -79 0
-48 -80 0
-45 -81 0
-46 -82 0
-47 -83 0
-48 -84 0
-49 -81 0
-50 -82 0
-51 -83 0
-52 -84 0
-49 -85 0
-50 -86 0
-51 -87 0
-52 -88 0
-53 -85 0
-54 -86 0
-55 -87 0
-56 -88 0
-53 -89 0
-54 -90 0
-55 -91 0
-56 -92 0
-57 -89 0
-58 -90 0
-59 -91 0
-60 -92 0
-57 -93 0
-58 -94 0
-59 -95 0
-60 -96 0
-61 -97 0
-62 -98 0
-63 -99 0
-64 -100 0
-61 -101 0
-62 -102 0
-63 -103 0
-64 -104 0
-65 -101 0
-66 -102 0
-67 -103 0
-68 -104 0
-65 -105 0
-66 -106 0
-67 -107 0
-68 -108 0
-69 -105 0
-70 -106 0
-71 -107 0
-72 -108 0
-69 -109 0
-70 -110 0
-71 -111 0
-72 -112 0
-73 -109 0
-74 -110 0
-75 -111 0
-76 -112 0
-73 -113 0
-74 -114 0
-75 -115 0
-76 -116 0
-77 -81 0
-78 -82 0
-79 -83 0
-80 -84 0
-97 -101 0
-98 -102 0
-99 -103 0
-100 -104 0
-81 -85 0
-82 -86 0
-83 -87 0
-84 -88 0
-101 -105 0
-102 -106 0
-103 -107 0
-104 -108 0
-85 -89 0
-86 -90 0
-87 -91 0
-88 -92 0
-105 -109 0
-106 -110 0
-107 -111 0
-108 -112 0
-89 -93 0
-90 -94 0
-91 -95 0
-92 -96 0
-109 -113 0
-110 -114 0
-111 -115 0
-112 -116 0
-77 -97 0
-78 -98 0
-79 -99 0
-80 -100 0
-113 -93 0
-114 -94 0
-115 -95 0
-116 -96 0
-97 -45 0
-98 -46 0
-99 -47 0
-100 -48 0
-113 -57 0
-114 -58 0
-115 -59 0
-116 -60 0
-77 -117 0
-78 -118 0
-79 -119 0
-80 -120 0
-77 -121 0
-78 -122 0
-79 -123 0
-80 -124 0
-81 -121 0
-82 -122 0
-83 -123 0
-84 -124 0
-81 -125 0
-82 -126 0
-83 -127 0
-84 -128 0
-85 -125 0
-86 -126 0
-87 -127 0
-88 -128 0
-85 -129 0
-86 -130 0
-87 -131 0
-88 -132 0
-89 -129 0
-90 -130 0
-91 -131 0
-92 -132 0
-89 -133 0
-90 -134 0
-91 -135 0
-92 -136 0
-93 -133 0
-94 -134 0
-95 -135 0
-96 -136 0
-93 -137 0
-94 -138 0
-95 -139 0
-96 -140 0
-97 -141 0
-98 -142 0
-99 -143 0
-100 -144 0
-97 -145 0
-98 -146 0
-99 -147 0
-100 -148 0
-101 -145 0
-102 -146 0
-103 -147 0
-104 -148 0
-101 -149 0
-102 -150 0
-103 -151 0
-104 -152 0
-105 -149 0
-106 -150 0
-107 -151 0
-108 -152 0
-105 -153 0
-106 -154 0
-107 -155 0
-108 -156 0
-109 -153 0
-110 -154 0
-111 -155 0
-112 -156 0
-109 -157 0
-110 -158 0
-111 -159 0
-112 -160 0
-113 -157 0
-114 -158 0
-115 -159 0
-116 -160 0
-113 -161 0
-114 -162 0
-115 -163 0
-116 -164 0
-117 -121 0
-118 -122 0
-119 -123 0
-120 -124 0
-141 -145 0
-142 -146 0
-143 -147 0
-144 -148 0
-121 -125 0
-122 -126 0
-123 -127 0
-124 -128 0
-145 -149 0
-146 -150 0
-147 -151 0
-148 -152 0
-125 -129 0
-126 -130 0
-127 -131 0
-128 -132 0
-149 -153 0
-150 -154 0
-151 -155 0
-152 -156 0
-129 -133 0
-130 -134 0
-131 -135 0
-132 -136 0
-153 -157 0
-154 -158 0
-155 -159 0
-156 -160 0
-133 -137 0
-134 -138 0
-135 -139 0
-136 -140 0
-157 -161 0
-158 -162 0
-159 -163 0
-160 -164 0
-117 -141 0
-118 -142 0
-119 -143 0
-120 -144 0
-161 -137 0
-162 -138 0
-163 -139 0
-164 -140 0
-141 -77 0
-142 -78 0
-143 -79 0
-144 -80 0
-161 -93 0
-162 -94 0
-163 -95 0
-164 -96 0
-117 -165 0
-118 -166 0
-119 -167 0
-120 -168 0
-117 -169 0
-118 -170 0
-119 -171 0
-120 -172 0
-121 -169 0
-122 -170 0
-123 -171 0
-124 -172 0
-121 -173 0
-122 -174 0
-123 -175 0
-124 -176 0
-125 -173 0
-126 -174 0
-127 -175 0
-128 -176 0
-125 -177 0
-126 -178 0
-127 -179 0
-128 -180 0
-129 -177 0
-130 -178 0
-131 -179 0
-132 -180 0
-129 -181 0
-130 -182 0
-131 -183 0
-132 -184 0
-133 -181 0
-134 -182 0
-135 -183 0
-136 -184 0
-133 -185 0
-134 -186 0
-135 -187 0
-136 -188 0
-137 -185 0
-138 -186 0
-139 -187 0
-140 -188 0
-137 -189 0
-138 -190 0
-139 -191 0
-140 -192 0
-141 -193 0
-142 -194 0
-143 -195 0
-144 -196 0
-141 -197 0
-142 -198 0
-143 -199 0
-144 -200 0
-145 -197 0
-146 -198 0
-147 -199 0
-148 -200 0
-145 -201 0
-146 -202 0
-147 -203 0
-148 -204 0
-149 -201 0
-150 -202 0
-151 -203 0
-152 -204 0
-149 -205 0
-150 -206 0
-151 -207 0
-152 -208 0
-153 -205 0
-154 -206 0
-155 -207 0
-156 -208 0
-153 -209 0
-154 -210 0
-155 -211 0
-156 -212 0
-157 -209 0
-158 -210 0
-159 -211 0
-160 -212 0
-157 -213 0
-158 -214 0
-159 -215 0
-160 -216 0
-161 -213 0
-162 -214 0
-163 -215 0
-164 -216 0
-161 -217 0
-162 -218 0
-163 -219 0
-164 -220 0
-165 -169 0
-166 -170 0
-167 -171 0
-168 -172 0
-193 -197 0
-194 -198 0
-195 -199 0
-196 -200 0
-169 -173 0
-170 -174 0
-171 -175 0
-172 -176 0
-197 -201 0
-198 -202 0
-199 -203 0
-200 -204 0
-173 -177 0
-174 -178 0
-175 -179 0
-176 -180 0
-201 -205 0
-202 -206 0
-203 -207 0
-204 -208 0
-177 -181 0
-178 -182 0
-179 -183 0
-180 -184 0
-205 -209 0
-206 -210 0
-207 -211 0
-208 -212 0
-181 -185 0
-182 -186 0
-183 -187 0
-184 -188 0
-209 -213 0
-210 -214 0
-211 -215 0
-212 -216 0
-185 -189 0
-186 -190 0
-187 -191 0
-188 -192 0
-213 -217 0
-214 -218 0
-215 -219 0
-216 -220 0
-165 -193 0
-166 -194 0
-167 -195 0
-168 -196 0
-217 -189 0
-218 -190 0
-219 -191 0
-220 -192 0
-193 -117 0
-194 -118 0
-195 -119 0
-196 -120 0
-217 -137 0
-218 -138 0
-219 -139 0
-220 -140 0
-165 -221 0
-166 -222 0
-167 -223 0
-168 -224 0
-165 -225 0
-166 -226 0
-167 -227 0
-168 -228 0
-169 -225 0
-170 -226 0
-171 -227 0
-172 -228 0
-169 -229 0
-170 -230 0
-171 -231 0
-172 -232 0
-173 -229 0
-174 -230 0
-175 -231 0
-176 -232 0
-173 -233 0
-174 -234 0
-175 -235 0
-176 -236 0
-177 -233 0
-178 -234 0
-179 -235 0
-180 -236 0
-177 -237 0
-178 -238 0
-179 -239 0
-180 -240 0
-181 -237 0
-182 -238 0
-183 -239 0
-184 -240 0
-181 -241 0
-182 -242 0
-183 -243 0
-184 -244 0
-185 -241 0
-186 -242 0
-187 -243 0
-188 -244 0
-185 -245 0
-186 -246 0
-187 -247 0
-188 -248 0
-189 -245 0
-190 -246 0
-191 -247 0
-192 -248 0
-189 -249 0
-190 -250 0
-191 -251 0
-192 -252 0
-193 -253 0
-194 -254 0
-195 -255 0
-196 -256 0
-193 -257 0
-194 -258 0
-195 -259 0
-196 -260 0
-197 -257 0
-198 -258 0
-199 -259 0
-200 -260 0
-197 -261 0
-198 -262 0
-199 -263 0
-200 -264 0
-201 -261 0
-202 -262 0
-203 -263 0
-204 -264 0
-201 -265 0
-202 -266 0
-203 -267 0
-204 -268 0
-205 -265 0
-206 -266 0
-207 -267 0
-208 -268 0
-205 -269 0
-206 -270 0
-207 -271 0
-208 -272 0
-209 -269 0
-210 -270 0
-211 -271 0
-212 -272 0
-209 -273 0
-210 -274 0
-211 -275 0
-212 -276 0
-213 -273 0
-214 -274 0
-215 -275 0
-216 -276 0
-213 -277 0
-214 -278 0
-215 -279 0
-216 -280 0
-217 -277 0
-218 -278 0
-219 -279 0
-220 -280 0
-217 -281 0
-218 -282 0
-219 -283 0
-220 -284 0
-221 -225 0
-222 -226 0
-223 -227 0
-224 -228 0
-253 -257 0
-254 -258 0
-255 -259 0
-256 -260 0
-225 -229 0
-226 -230 0
-227 -231 0
-228 -232 0
-257 -261 0
-258 -262 0
-259 -263 0
-260 -264 0
-229 -233 0
-230 -234 0
-231 -235 0
-232 -236 0
-261 -265 0
-262 -266 0
-263 -267 0
-264 -268 0
-233 -237 0
-234 -238 0
-235 -239 0
-236 -240 0
-265 -269 0
-266 -270 0
-267 -271 0
-268 -272 0
-237 -241 0
-238 -242 0
-239 -243 0
-240 -244 0
-269 -273 0
-270 -274 0
-271 -275 0
-272 -276 0
-241 -245 0
-242 -246 0
-243 -247 0
-244 -248 0
-273 -277 0
-274 -278 0
-275 -279 0
-276 -280 0
-245 -249 0
-246 -250 0
-247 -251 0
-248 -252 0
-277 -281 0
-278 -282 0
-279 -283 0
-280 -284 0
-221 -253 0
-222 -254 0
-223 -255 0
-224 -256 0
-281 -249 0
-282 -250 0
-283 -251 0
-284 -252 0
-253 -165 0
-254 -166 0
-255 -167 0
-256 -168 0
-281 -189 0
-282 -190 0
-283 -191 0
-284 -192 0
-221 -285 0
-222 -286 0
-223 -287 0
-224 -288 0
-221 -289 0
-222 -290 0
-223 -291 0
-224 -292 0
-225 -289 0
-226 -290 0
-227 -291 0
-228 -292 0
-225 -293 0
-226 -294 0
-227 -295 0
-228 -296 0
-229 -293 0
-230 -294 0
-231 -295 0
-232 -296 0
-229 -297 0
-230 -298 0
-231 -299 0
-232 -300 0
-233 -297 0
-234 -298 0
-235 -299 0
-236 -300 0
-233 -301 0
-234 -302 0
-235 -303 0
-236 -304 0
-237 -301 0
-238 -302 0
-239 -303 0
-240 -304 0
-237 -305 0
-238 -306 0
-239 -307 0
-240 -308 0
-241 -305 0
-242 -306 0
-243 -307 0
-244 -308 0
-241 -309 0
-242 -310 0
-243 -311 0
-244 -312 0
-245 -309 0
-246 -310 0
-247 -311 0
-248 -312 0
-245 -313 0
-246 -314 0
-247 -315 0
-248 -316 0
-249 -313 0
-250 -314 0
-251 -315 0
-252 -316 0
-249 -317 0
-250 -318 0
-251 -319 0
-252 -320 0
-253 -321 0
-254 -322 0
-255 -323 0
-256 -324 0
-253 -325 0
-254 -326 0
-255 -327 0
-256 -328 0
-257 -325 0
-258 -326 0
-259 -327 0
-260 -328 0
-257 -329 0
-258 -330 0
-259 -331 0
-260 -332 0
-261 -329 0
-262 -330 0
-263 -331 0
-264 -332 0
-261 -333 0
-262 -334 0
-263 -335 0
-264 -336 0
-265 -333 0
-266 -334 0
-267 -335 0
-268 -336 0
-265 -337 0
-266 -338 0
-267 -339 0
-268 -340 0
-269 -337 0
-270 -338 0
-271 -339 0
-272 -340 0
-269 -341 0
-270 -342 0
-271 -343 0
-272 -344 0
-273 -341 0
-274 -342 0
-275 -343 0
-276 -344 0
-273 -345 0
-274 -346 0
-275 -347 0
-276 -348 0
-277 -345 0
-278 -346 0
-279 -347 0
-280 -348 0
-277 -349 0
-278 -350 0
-279 -351 0
-280 -352 0
-281 -349 0
-282 -350 0
-283 -351 0
-284 -352 0
-281 -353 0
-282 -354 0
-283 -355 0
-284 -356 0
-285 -289 0
-286 -290 0
-287 -291 0
-288 -292 0
-321 -325 0
-322 -326 0
-323 -327 0
-324 -328 0
-289 -293 0
-290 -294 0
-291 -295 0
-292 -296 0
-325 -329 0
-326 -330 0
-327 -331 0
-328 -332 0
-293 -297 0
-294 -298 0
-295 -299 0
-296 -300 0
-329 -333 0
-330 -334 0
-331 -335 0
-332 -336 0
-297 -301 0
-298 -302 0
-299 -303 0
-300 -304 0
-333 -337 0
-334 -338 0
-335 -339 0
-336 -340 0
-301 -305 0
-302 -306 0
-303 -307 0
-304 -308 0
-337 -341 0
-338 -342 0
-339 -343 0
-340 -344 0
-305 -309 0
-306 -310 0
-307 -311 0
-308 -312 0
-341 -345 0
-342 -346 0
-343 -347 0
-344 -348 0
-309 -313 0
-310 -314 0
-311 -315 0
-312 -316 0
-345 -349 0
-346 -350 0
-347 -351 0
-348 -352 0
-313 -317 0
-314 -318 0
-315 -319 0
-316 -320 0
-349 -353 0
-350 -354 0
-351 -355 0
-352 -356 0
-285 -321 0
-286 -322 0
-287 -323 0
-288 -324 0
-353 -317 0
-354 -318 0
-355 -319 0
-356 -320 0
-321 -221 0
-322 -222 0
-323 -223 0
-324 -224 0
-353 -249 0
-354 -250 0
-355 -251 0
-356 -252 0
-285 -357 0
-286 -358 0
-287 -359 0
-288 -360 0
-285 -361 0
-286 -362 0
-287 -363 0
-288 -364 0
-289 -361 0
-290 -362 0
-291 -363 0
-292 -364 0
-289 -365 0
-290 -366 0
-291 -367 0
-292 -368 0
-293 -365 0
-294 -366 0
-295 -367 0
-296 -368 0
-293 -369 0
-294 -370 0
-295 -371 0
-296 -372 0
-297 -369 0
-298 -370 0
-299 -371 0
-300 -372 0
-297 -373 0
-298 -374 0
-299 -375 0
-300 -376 0
-301 -373 0
-302 -374 0
-303 -375 0
-304 -376 0
-301 -377 0
-302 -378 0
-303 -379 0
-304 -380 0
-305 -377 0
-306 -378 0
-307 -379 0
-308 -380 0
-305 -381 0
-306 -382 0
-307 -383 0
-308 -384 0
-309 -381 0
-310 -382 0
-311 -383 0
-312 -384 0
-309 -385 0
-310 -386 0
-311 -387 0
-312 -388 0
-313 -385 0
-314 -386 0
-315 -387 0
-316 -388 0
-313 -389 0
-314 -390 0
-315 -391 0
-316 -392 0
-317 -389 0
-318 -390 0
-319 -391 0
-320 -392 0
-317 -393 0
-318 -394 0
-319 -395 0
-320 -396 0
-321 -397 0
-322 -398 0
-323 -399 0
-324 -400 0
-321 -401 0
-322 -402 0
-323 -403 0
-324 -404 0
-325 -401 0
-326 -402 0
-327 -403 0
-328 -404 0
-325 -405 0
-326 -406 0
-327 -407 0
-328 -408 0
-329 -405 0
-330 -406 0
-331 -407 0
-332 -408 0
-329 -409 0
-330 -410 0
-331 -411 0
-332 -412 0
-333 -409 0
-334 -410 0
-335 -411 0
-336 -412 0
-333 -413 0
-334 -414 0
-335 -415 0
-336 -416 0
-337 -413 0
-338 -414 0
-339 -415 0
-340 -416 0
-337 -417 0
-338 -418 0
-339 -419 0
-340 -420 0
-341 -417 0
-342 -418 0
-343 -419 0
-344 -420 0
-341 -421 0
-342 -422 0
-343 -423 0
-344 -424 0
-345 -421 0
-346 -422 0
-347 -423 0
-348 -424 0
-345 -425 0
-346 -426 0
-347 -427 0
-348 -428 0
-349 -425 0
-350 -426 0
-351 -427 0
-352 -428 0
-349 -429 0
-350 -430 0
-351 -431 0
-352 -432 0
-353 -429 0
-354 -430 0
-355 -431 0
-356 -432 0
-353 -433 0
-354 -434 0
-355 -435 0
-356 -436 0
-357 -361 0
-358 -362 0
-359 -363 0
-360 -364 0
-397 -401 0
-398 -402 0
-399 -403 0
-400 -404 0
-361 -365 0
-362 -366 0
-363 -367 0
-364 -368 0
-401 -405 0
-402 -406 0
-403 -407 0
-404 -408 0
-365 -369 0
-366 -370 0
-367 -371 0
-368 -372 0
-405 -409 0
-406 -410 0
-407 -411 0
-408 -412 0
-369 -373 0
-370 -374 0
-371 -375 0
-372 -376 0
-409 -413 0
-410 -414 0
-411 -415 0
-412 -416 0
-373 -377 0
-374 -378 0
-375 -379 0
-376 -380 0
-413 -417 0
-414 -418 0
-415 -419 0
-416 -420 0
-377 -381 0
-378 -382 0
-379 -383 0
-380 -384 0
-417 -421 0
-418 -422 0
-419 -423 0
-420 -424 0
-381 -385 0
-382 -386 0
-383 -387 0
-384 -388 0
-421 -425 0
-422 -426 0
-423 -427 0
-424 -428 0
-385 -389 0
-386 -390 0
-387 -391 0
-388 -392 0
-425 -429 0
-426 -430 0
-427 -431 0
-428 -432 0
-389 -393 0
-390 -394 0
-391 -395 0
-392 -396 0
-429 -433 0
-430 -434 0
-431 -435 0
-432 -436 0
-357 -397 0
-358 -398 0
-359 -399 0
-360 -400 0
-433 -393 0
-434 -394 0
-435 -395 0
-436 -396 0
-397 -285 0
-398 -286 0
-399 -287 0
-400 -288 0
-433 -317 0
-434 -318 0
-435 -319 0
-436 -320 0
-433 -357 0
-434 -358 0
-435 -359 0
-436 -360 0
-433 -361 0
-434 -362 0
-435 -363 0
-436 -364 0
-433 -365 0
-434 -366 0
-435 -367 0
-436 -368 0
-433 -369 0
-434 -370 0
-435 -371 0
-436 -372 0
-433 -373 0
-434 -374 0
-435 -375 0
-436 -376 0
-433 -377 0
-434 -378 0
-435 -379 0
-436 -380 0
-433 -381 0
-434 -382 0
-435 -383 0
-436 -384 0
-433 -385 0
-434 -386 0
-435 -387 0
-436 -388 0
-433 -389 0
-434 -390 0
-435 -391 0
-436 -392 0
-357 -401 0
-358 -402 0
-359 -403 0
-360 -404 0
-357 -405 0
-358 -406 0
-359 -407 0
-360 -408 0
-357 -409 0
-358 -410 0
-359 -411 0
-360 -412 0
-357 -413 0
-358 -414 0
-359 -415 0
-360 -416 0
-357 -417 0
-358 -418 0
-359 -419 0
-360 -420 0
-437 -433 0
-438 -434 0
-439 -435 0
-440 -436 0
-437 -429 0
-438 -430 0
-439 -431 0
-440 -432 0
-437 -425 0
-438 -426 0
-439 -427 0
-440 -428 0
-437 -421 0
-438 -422 0
-439 -423 0
-440 -424 0
-437 -417 0
-438 -418 0
-439 -419 0
-440 -420 0
-437 -357 0
-438 -358 0
-439 -359 0
-440 -360 0